p cnf 324 1
324 0
w 1 0.794926
w 2 1 0.613648
w 2 -1 0.177665
w 3 2 1
w 3 -2 0
w 4 3 1
w 4 -3 0
w 5 4 0.826855
w 5 -4 0.723207
w 6 5 0.628328
w 6 -5 0.0512729
w 7 6 0
w 7 -6 1
w 8 7 1
w 8 -7 0
w 9 8 0.955285
w 9 -8 0.980715
w 10 9 1
w 10 -9 0
w 11 10 0.647445
w 11 -10 0.0190788
w 12 11 0.988583
w 12 -11 0.484387
w 13 12 0
w 13 -12 1
w 14 13 1
w 14 -13 0
w 15 14 0.456978
w 15 -14 0.801646
w 16 15 0.662718
w 16 -15 0.418069
w 17 16 0.489574
w 17 -16 0.141276
w 18 17 0
w 18 -17 1
w 19 1 1
w 19 -1 0
w 20 19 2 0.345301
w 20 19 -2 0.667515
w 20 -19 2 0.744204
w 20 -19 -2 0.300587
w 21 20 3 0.183477
w 21 20 -3 0.109798
w 21 -20 3 0.444351
w 21 -20 -3 0.830922
w 22 21 4 1
w 22 21 -4 1
w 22 -21 4 1
w 22 -21 -4 0
w 23 22 5 0.179782
w 23 22 -5 0.686572
w 23 -22 5 0.349554
w 23 -22 -5 0.981428
w 24 23 6 0
w 24 23 -6 0
w 24 -23 6 1
w 24 -23 -6 1
w 25 24 7 0.0305207
w 25 24 -7 0.619747
w 25 -24 7 0.73332
w 25 -24 -7 0.705396
w 26 25 8 0.0786219
w 26 25 -8 0.372911
w 26 -25 8 0.266182
w 26 -25 -8 0.379209
w 27 26 9 1
w 27 26 -9 0
w 27 -26 9 0
w 27 -26 -9 1
w 28 27 10 0.860554
w 28 27 -10 0.100087
w 28 -27 10 0.231147
w 28 -27 -10 0.737718
w 29 28 11 0
w 29 28 -11 1
w 29 -28 11 1
w 29 -28 -11 0
w 30 29 12 0.0359072
w 30 29 -12 0.485549
w 30 -29 12 0.298423
w 30 -29 -12 0.891442
w 31 30 13 0.839195
w 31 30 -13 0.921963
w 31 -30 13 0.607142
w 31 -30 -13 0.572516
w 32 31 14 0.12912
w 32 31 -14 0.651138
w 32 -31 14 0.000269244
w 32 -31 -14 0.395302
w 33 32 15 0
w 33 32 -15 1
w 33 -32 15 1
w 33 -32 -15 1
w 34 33 16 1
w 34 33 -16 1
w 34 -33 16 0
w 34 -33 -16 0
w 35 34 17 0
w 35 34 -17 1
w 35 -34 17 0
w 35 -34 -17 0
w 36 35 18 0.0407147
w 36 35 -18 0.450932
w 36 -35 18 0.200021
w 36 -35 -18 0.932157
w 37 19 1
w 37 -19 0
w 38 37 20 0.0454687
w 38 37 -20 0.611732
w 38 -37 20 0.481478
w 38 -37 -20 0.174589
w 39 38 21 1
w 39 38 -21 0
w 39 -38 21 0
w 39 -38 -21 0
w 40 39 22 1
w 40 39 -22 1
w 40 -39 22 0
w 40 -39 -22 0
w 41 40 23 1
w 41 40 -23 0
w 41 -40 23 0
w 41 -40 -23 0
w 42 41 24 0.425353
w 42 41 -24 0.0427687
w 42 -41 24 0.775677
w 42 -41 -24 0.326951
w 43 42 25 0
w 43 42 -25 1
w 43 -42 25 0
w 43 -42 -25 1
w 44 43 26 0.86976
w 44 43 -26 0.710404
w 44 -43 26 0.177921
w 44 -43 -26 0.351238
w 45 44 27 0.440791
w 45 44 -27 0.832985
w 45 -44 27 0.454885
w 45 -44 -27 0.734008
w 46 45 28 1
w 46 45 -28 0
w 46 -45 28 0
w 46 -45 -28 1
w 47 46 29 1
w 47 46 -29 0
w 47 -46 29 0
w 47 -46 -29 1
w 48 47 30 0
w 48 47 -30 1
w 48 -47 30 0
w 48 -47 -30 0
w 49 48 31 0.340376
w 49 48 -31 0.627151
w 49 -48 31 0.365668
w 49 -48 -31 0.356016
w 50 49 32 0
w 50 49 -32 0
w 50 -49 32 0
w 50 -49 -32 1
w 51 50 33 0.887484
w 51 50 -33 0.550569
w 51 -50 33 0.409999
w 51 -50 -33 0.342369
w 52 51 34 0
w 52 51 -34 0
w 52 -51 34 1
w 52 -51 -34 1
w 53 52 35 0.327537
w 53 52 -35 0.73605
w 53 -52 35 0.798405
w 53 -52 -35 0.142107
w 54 53 36 0.0125291
w 54 53 -36 0.766972
w 54 -53 36 0.334187
w 54 -53 -36 0.269422
w 55 37 0
w 55 -37 1
w 56 55 38 0.794665
w 56 55 -38 0.538552
w 56 -55 38 0.965814
w 56 -55 -38 0.0867518
w 57 56 39 0
w 57 56 -39 1
w 57 -56 39 1
w 57 -56 -39 1
w 58 57 40 0.130757
w 58 57 -40 0.178603
w 58 -57 40 0.319096
w 58 -57 -40 0.415334
w 59 58 41 0.531204
w 59 58 -41 0.246488
w 59 -58 41 0.997084
w 59 -58 -41 0.153446
w 60 59 42 0.733134
w 60 59 -42 0.951851
w 60 -59 42 0.716132
w 60 -59 -42 0.555576
w 61 60 43 0.483105
w 61 60 -43 0.889763
w 61 -60 43 0.233802
w 61 -60 -43 0.650619
w 62 61 44 1
w 62 61 -44 0
w 62 -61 44 0
w 62 -61 -44 1
w 63 62 45 0.0716082
w 63 62 -45 0.00100421
w 63 -62 45 0.621278
w 63 -62 -45 0.651796
w 64 63 46 0.598006
w 64 63 -46 0.782552
w 64 -63 46 0.948211
w 64 -63 -46 0.917102
w 65 64 47 0
w 65 64 -47 1
w 65 -64 47 0
w 65 -64 -47 0
w 66 65 48 0.0183996
w 66 65 -48 0.603172
w 66 -65 48 0.553603
w 66 -65 -48 0.734532
w 67 66 49 1
w 67 66 -49 0
w 67 -66 49 0
w 67 -66 -49 1
w 68 67 50 0.111158
w 68 67 -50 0.595386
w 68 -67 50 0.313539
w 68 -67 -50 0.712357
w 69 68 51 1
w 69 68 -51 0
w 69 -68 51 0
w 69 -68 -51 0
w 70 69 52 0
w 70 69 -52 0
w 70 -69 52 1
w 70 -69 -52 1
w 71 70 53 1
w 71 70 -53 0
w 71 -70 53 0
w 71 -70 -53 0
w 72 71 54 1
w 72 71 -54 0
w 72 -71 54 1
w 72 -71 -54 0
w 73 55 0.103606
w 73 -55 0.831142
w 74 73 56 0.855393
w 74 73 -56 0.699398
w 74 -73 56 0.788205
w 74 -73 -56 0.450779
w 75 74 57 1
w 75 74 -57 1
w 75 -74 57 0
w 75 -74 -57 1
w 76 75 58 1
w 76 75 -58 1
w 76 -75 58 0
w 76 -75 -58 1
w 77 76 59 1
w 77 76 -59 0
w 77 -76 59 1
w 77 -76 -59 1
w 78 77 60 1
w 78 77 -60 0
w 78 -77 60 0
w 78 -77 -60 0
w 79 78 61 0.521938
w 79 78 -61 0.5237
w 79 -78 61 0.538999
w 79 -78 -61 0.198985
w 80 79 62 1
w 80 79 -62 0
w 80 -79 62 1
w 80 -79 -62 1
w 81 80 63 1
w 81 80 -63 0
w 81 -80 63 1
w 81 -80 -63 1
w 82 81 64 0
w 82 81 -64 1
w 82 -81 64 0
w 82 -81 -64 0
w 83 82 65 1
w 83 82 -65 1
w 83 -82 65 0
w 83 -82 -65 0
w 84 83 66 0.834542
w 84 83 -66 0.0956993
w 84 -83 66 0.818071
w 84 -83 -66 0.254636
w 85 84 67 0.340009
w 85 84 -67 0.778336
w 85 -84 67 0.342556
w 85 -84 -67 0.538994
w 86 85 68 1
w 86 85 -68 0
w 86 -85 68 1
w 86 -85 -68 1
w 87 86 69 0
w 87 86 -69 1
w 87 -86 69 1
w 87 -86 -69 1
w 88 87 70 1
w 88 87 -70 0
w 88 -87 70 1
w 88 -87 -70 1
w 89 88 71 0.400395
w 89 88 -71 0.495926
w 89 -88 71 0.448332
w 89 -88 -71 0.400466
w 90 89 72 1
w 90 89 -72 1
w 90 -89 72 0
w 90 -89 -72 0
w 91 73 0
w 91 -73 1
w 92 91 74 0.26798
w 92 91 -74 0.739085
w 92 -91 74 0.0700746
w 92 -91 -74 0.425408
w 93 92 75 0
w 93 92 -75 1
w 93 -92 75 1
w 93 -92 -75 0
w 94 93 76 1
w 94 93 -76 1
w 94 -93 76 1
w 94 -93 -76 0
w 95 94 77 0.708274
w 95 94 -77 0.674573
w 95 -94 77 0.385148
w 95 -94 -77 0.655552
w 96 95 78 0
w 96 95 -78 0
w 96 -95 78 0
w 96 -95 -78 1
w 97 96 79 0
w 97 96 -79 1
w 97 -96 79 0
w 97 -96 -79 0
w 98 97 80 1
w 98 97 -80 0
w 98 -97 80 1
w 98 -97 -80 0
w 99 98 81 0.426975
w 99 98 -81 0.865371
w 99 -98 81 0.306184
w 99 -98 -81 0.579299
w 100 99 82 0
w 100 99 -82 0
w 100 -99 82 1
w 100 -99 -82 1
w 101 100 83 0
w 101 100 -83 1
w 101 -100 83 1
w 101 -100 -83 0
w 102 101 84 1
w 102 101 -84 0
w 102 -101 84 0
w 102 -101 -84 0
w 103 102 85 1
w 103 102 -85 0
w 103 -102 85 1
w 103 -102 -85 1
w 104 103 86 1
w 104 103 -86 0
w 104 -103 86 1
w 104 -103 -86 0
w 105 104 87 1
w 105 104 -87 1
w 105 -104 87 0
w 105 -104 -87 1
w 106 105 88 0.340426
w 106 105 -88 0.317878
w 106 -105 88 0.39031
w 106 -105 -88 0.437121
w 107 106 89 1
w 107 106 -89 0
w 107 -106 89 0
w 107 -106 -89 1
w 108 107 90 0.178645
w 108 107 -90 0.683191
w 108 -107 90 0.267018
w 108 -107 -90 0.549171
w 109 91 0.30831
w 109 -91 0.630139
w 110 109 92 0
w 110 109 -92 0
w 110 -109 92 1
w 110 -109 -92 1
w 111 110 93 0.206759
w 111 110 -93 0.10324
w 111 -110 93 0.302911
w 111 -110 -93 0.271585
w 112 111 94 0
w 112 111 -94 1
w 112 -111 94 1
w 112 -111 -94 1
w 113 112 95 1
w 113 112 -95 0
w 113 -112 95 0
w 113 -112 -95 0
w 114 113 96 0
w 114 113 -96 0
w 114 -113 96 1
w 114 -113 -96 0
w 115 114 97 1
w 115 114 -97 1
w 115 -114 97 0
w 115 -114 -97 1
w 116 115 98 1
w 116 115 -98 1
w 116 -115 98 1
w 116 -115 -98 0
w 117 116 99 0.233716
w 117 116 -99 0.595911
w 117 -116 99 0.212944
w 117 -116 -99 0.505301
w 118 117 100 0.464635
w 118 117 -100 0.42101
w 118 -117 100 0.406261
w 118 -117 -100 0.0567524
w 119 118 101 0.460913
w 119 118 -101 0.0859909
w 119 -118 101 0.351614
w 119 -118 -101 0.453044
w 120 119 102 0
w 120 119 -102 0
w 120 -119 102 1
w 120 -119 -102 0
w 121 120 103 0.572222
w 121 120 -103 0.199784
w 121 -120 103 0.28015
w 121 -120 -103 0.121491
w 122 121 104 0.738199
w 122 121 -104 0.688319
w 122 -121 104 0.788025
w 122 -121 -104 0.765156
w 123 122 105 1
w 123 122 -105 0
w 123 -122 105 0
w 123 -122 -105 0
w 124 123 106 0.375637
w 124 123 -106 0.925183
w 124 -123 106 0.925082
w 124 -123 -106 0.432389
w 125 124 107 0.385994
w 125 124 -107 0.51838
w 125 -124 107 0.931395
w 125 -124 -107 0.839039
w 126 125 108 0.263579
w 126 125 -108 0.154013
w 126 -125 108 0.206962
w 126 -125 -108 0.754977
w 127 109 0
w 127 -109 1
w 128 127 110 0.29426
w 128 127 -110 0.900675
w 128 -127 110 0.493069
w 128 -127 -110 0.0324588
w 129 128 111 0.281094
w 129 128 -111 0.797615
w 129 -128 111 0.769983
w 129 -128 -111 0.979152
w 130 129 112 0.546884
w 130 129 -112 0.890153
w 130 -129 112 0.30066
w 130 -129 -112 0.0657041
w 131 130 113 0
w 131 130 -113 1
w 131 -130 113 0
w 131 -130 -113 0
w 132 131 114 1
w 132 131 -114 1
w 132 -131 114 0
w 132 -131 -114 0
w 133 132 115 0
w 133 132 -115 1
w 133 -132 115 0
w 133 -132 -115 0
w 134 133 116 0
w 134 133 -116 0
w 134 -133 116 1
w 134 -133 -116 0
w 135 134 117 0.484498
w 135 134 -117 0.508276
w 135 -134 117 0.338057
w 135 -134 -117 0.46365
w 136 135 118 1
w 136 135 -118 1
w 136 -135 118 0
w 136 -135 -118 0
w 137 136 119 0.831266
w 137 136 -119 0.94143
w 137 -136 119 0.317773
w 137 -136 -119 0.636889
w 138 137 120 1
w 138 137 -120 0
w 138 -137 120 1
w 138 -137 -120 1
w 139 138 121 0
w 139 138 -121 1
w 139 -138 121 1
w 139 -138 -121 1
w 140 139 122 0.966006
w 140 139 -122 0.983299
w 140 -139 122 0.0438202
w 140 -139 -122 0.676667
w 141 140 123 0.528319
w 141 140 -123 0.184943
w 141 -140 123 0.889429
w 141 -140 -123 0.991969
w 142 141 124 0
w 142 141 -124 1
w 142 -141 124 0
w 142 -141 -124 0
w 143 142 125 0.926393
w 143 142 -125 0.666444
w 143 -142 125 0.28314
w 143 -142 -125 0.563282
w 144 143 126 0.817472
w 144 143 -126 0.93719
w 144 -143 126 0.518684
w 144 -143 -126 0.444065
w 145 127 0
w 145 -127 1
w 146 145 128 0
w 146 145 -128 1
w 146 -145 128 0
w 146 -145 -128 0
w 147 146 129 0.357396
w 147 146 -129 0.326012
w 147 -146 129 0.353023
w 147 -146 -129 0.908768
w 148 147 130 0.537966
w 148 147 -130 0.798197
w 148 -147 130 0.8463
w 148 -147 -130 0.0276708
w 149 148 131 0.192072
w 149 148 -131 0.122798
w 149 -148 131 0.29758
w 149 -148 -131 0.157438
w 150 149 132 1
w 150 149 -132 0
w 150 -149 132 1
w 150 -149 -132 1
w 151 150 133 0
w 151 150 -133 0
w 151 -150 133 1
w 151 -150 -133 0
w 152 151 134 0
w 152 151 -134 1
w 152 -151 134 1
w 152 -151 -134 0
w 153 152 135 0
w 153 152 -135 0
w 153 -152 135 1
w 153 -152 -135 0
w 154 153 136 0
w 154 153 -136 0
w 154 -153 136 1
w 154 -153 -136 1
w 155 154 137 0.318075
w 155 154 -137 0.380599
w 155 -154 137 0.961479
w 155 -154 -137 0.367265
w 156 155 138 1
w 156 155 -138 1
w 156 -155 138 1
w 156 -155 -138 0
w 157 156 139 0.760666
w 157 156 -139 0.362223
w 157 -156 139 0.390759
w 157 -156 -139 0.650576
w 158 157 140 0
w 158 157 -140 0
w 158 -157 140 1
w 158 -157 -140 1
w 159 158 141 0.683796
w 159 158 -141 0.190559
w 159 -158 141 0.157094
w 159 -158 -141 0.396051
w 160 159 142 0.324701
w 160 159 -142 0.906504
w 160 -159 142 0.568198
w 160 -159 -142 0.519978
w 161 160 143 0.372239
w 161 160 -143 0.838053
w 161 -160 143 0.370122
w 161 -160 -143 0.333718
w 162 161 144 1
w 162 161 -144 0
w 162 -161 144 0
w 162 -161 -144 0
w 163 145 1
w 163 -145 0
w 164 163 146 0.758106
w 164 163 -146 0.105216
w 164 -163 146 0.41929
w 164 -163 -146 0.192322
w 165 164 147 0.670127
w 165 164 -147 0.0726302
w 165 -164 147 0.0783297
w 165 -164 -147 0.197581
w 166 165 148 0.268889
w 166 165 -148 0.354675
w 166 -165 148 0.152477
w 166 -165 -148 0.225118
w 167 166 149 0.0589811
w 167 166 -149 0.793315
w 167 -166 149 0.199354
w 167 -166 -149 0.048504
w 168 167 150 0
w 168 167 -150 1
w 168 -167 150 0
w 168 -167 -150 0
w 169 168 151 0
w 169 168 -151 1
w 169 -168 151 1
w 169 -168 -151 0
w 170 169 152 0.389035
w 170 169 -152 0.247452
w 170 -169 152 0.329423
w 170 -169 -152 0.581358
w 171 170 153 0
w 171 170 -153 1
w 171 -170 153 0
w 171 -170 -153 1
w 172 171 154 1
w 172 171 -154 1
w 172 -171 154 0
w 172 -171 -154 1
w 173 172 155 0.412213
w 173 172 -155 0.430535
w 173 -172 155 0.670376
w 173 -172 -155 0.577767
w 174 173 156 1
w 174 173 -156 1
w 174 -173 156 0
w 174 -173 -156 0
w 175 174 157 1
w 175 174 -157 0
w 175 -174 157 1
w 175 -174 -157 1
w 176 175 158 0
w 176 175 -158 0
w 176 -175 158 1
w 176 -175 -158 0
w 177 176 159 0.602896
w 177 176 -159 0.567396
w 177 -176 159 0.699589
w 177 -176 -159 0.800027
w 178 177 160 0.0933691
w 178 177 -160 0.351833
w 178 -177 160 0.540701
w 178 -177 -160 0.712267
w 179 178 161 0.162572
w 179 178 -161 0.12448
w 179 -178 161 0.0135502
w 179 -178 -161 0.832948
w 180 179 162 0.481492
w 180 179 -162 0.921949
w 180 -179 162 0.779285
w 180 -179 -162 0.192158
w 181 163 0
w 181 -163 1
w 182 181 164 1
w 182 181 -164 0
w 182 -181 164 1
w 182 -181 -164 1
w 183 182 165 0
w 183 182 -165 0
w 183 -182 165 1
w 183 -182 -165 0
w 184 183 166 0.413711
w 184 183 -166 0.788306
w 184 -183 166 0.825052
w 184 -183 -166 0.50708
w 185 184 167 0
w 185 184 -167 0
w 185 -184 167 0
w 185 -184 -167 1
w 186 185 168 0
w 186 185 -168 1
w 186 -185 168 1
w 186 -185 -168 1
w 187 186 169 0
w 187 186 -169 0
w 187 -186 169 1
w 187 -186 -169 0
w 188 187 170 0.951117
w 188 187 -170 0.352248
w 188 -187 170 0.717694
w 188 -187 -170 0.317555
w 189 188 171 1
w 189 188 -171 1
w 189 -188 171 0
w 189 -188 -171 1
w 190 189 172 0
w 190 189 -172 0
w 190 -189 172 0
w 190 -189 -172 1
w 191 190 173 0
w 191 190 -173 1
w 191 -190 173 0
w 191 -190 -173 0
w 192 191 174 0.479656
w 192 191 -174 0.525047
w 192 -191 174 0.735834
w 192 -191 -174 0.697851
w 193 192 175 0.561194
w 193 192 -175 0.108205
w 193 -192 175 0.235814
w 193 -192 -175 0.477924
w 194 193 176 0.171471
w 194 193 -176 0.429041
w 194 -193 176 0.201412
w 194 -193 -176 0.889164
w 195 194 177 0.693084
w 195 194 -177 0.992241
w 195 -194 177 0.343997
w 195 -194 -177 0.898879
w 196 195 178 0
w 196 195 -178 1
w 196 -195 178 1
w 196 -195 -178 0
w 197 196 179 0.983056
w 197 196 -179 0.693785
w 197 -196 179 0.990904
w 197 -196 -179 0.726008
w 198 197 180 0.680664
w 198 197 -180 0.205664
w 198 -197 180 0.382605
w 198 -197 -180 0.416498
w 199 181 0.190874
w 199 -181 0.977692
w 200 199 182 1
w 200 199 -182 1
w 200 -199 182 0
w 200 -199 -182 0
w 201 200 183 0.0622945
w 201 200 -183 0.487323
w 201 -200 183 0.631253
w 201 -200 -183 0.755379
w 202 201 184 0
w 202 201 -184 0
w 202 -201 184 1
w 202 -201 -184 0
w 203 202 185 0
w 203 202 -185 1
w 203 -202 185 0
w 203 -202 -185 1
w 204 203 186 0.808516
w 204 203 -186 0.235479
w 204 -203 186 0.37357
w 204 -203 -186 0.48918
w 205 204 187 1
w 205 204 -187 0
w 205 -204 187 0
w 205 -204 -187 1
w 206 205 188 0.356377
w 206 205 -188 0.373737
w 206 -205 188 0.338985
w 206 -205 -188 0.21726
w 207 206 189 0.223642
w 207 206 -189 0.279554
w 207 -206 189 0.459219
w 207 -206 -189 0.854896
w 208 207 190 1
w 208 207 -190 0
w 208 -207 190 1
w 208 -207 -190 0
w 209 208 191 0.861832
w 209 208 -191 0.0283573
w 209 -208 191 0.416265
w 209 -208 -191 0.679444
w 210 209 192 0.932277
w 210 209 -192 0.48796
w 210 -209 192 0.773308
w 210 -209 -192 0.305848
w 211 210 193 0.214451
w 211 210 -193 0.062023
w 211 -210 193 0.882817
w 211 -210 -193 0.559108
w 212 211 194 0
w 212 211 -194 0
w 212 -211 194 0
w 212 -211 -194 1
w 213 212 195 1
w 213 212 -195 0
w 213 -212 195 0
w 213 -212 -195 1
w 214 213 196 1
w 214 213 -196 0
w 214 -213 196 0
w 214 -213 -196 1
w 215 214 197 1
w 215 214 -197 0
w 215 -214 197 0
w 215 -214 -197 0
w 216 215 198 0.820834
w 216 215 -198 0.956435
w 216 -215 198 0.165656
w 216 -215 -198 0.594142
w 217 199 1
w 217 -199 0
w 218 217 200 0.324305
w 218 217 -200 0.0256123
w 218 -217 200 0.3677
w 218 -217 -200 0.333378
w 219 218 201 0.283185
w 219 218 -201 0.716188
w 219 -218 201 0.89697
w 219 -218 -201 0.415929
w 220 219 202 1
w 220 219 -202 1
w 220 -219 202 1
w 220 -219 -202 0
w 221 220 203 0
w 221 220 -203 0
w 221 -220 203 0
w 221 -220 -203 1
w 222 221 204 1
w 222 221 -204 0
w 222 -221 204 1
w 222 -221 -204 0
w 223 222 205 1
w 223 222 -205 1
w 223 -222 205 0
w 223 -222 -205 0
w 224 223 206 0
w 224 223 -206 0
w 224 -223 206 0
w 224 -223 -206 1
w 225 224 207 0
w 225 224 -207 0
w 225 -224 207 0
w 225 -224 -207 1
w 226 225 208 0.336441
w 226 225 -208 0.293784
w 226 -225 208 0.603695
w 226 -225 -208 0.745932
w 227 226 209 0.241218
w 227 226 -209 0.169279
w 227 -226 209 0.98112
w 227 -226 -209 0.13339
w 228 227 210 1
w 228 227 -210 1
w 228 -227 210 0
w 228 -227 -210 0
w 229 228 211 0
w 229 228 -211 1
w 229 -228 211 1
w 229 -228 -211 0
w 230 229 212 1
w 230 229 -212 1
w 230 -229 212 0
w 230 -229 -212 1
w 231 230 213 1
w 231 230 -213 1
w 231 -230 213 1
w 231 -230 -213 0
w 232 231 214 0.438939
w 232 231 -214 0.211515
w 232 -231 214 0.868884
w 232 -231 -214 0.0426339
w 233 232 215 0.438126
w 233 232 -215 0.283852
w 233 -232 215 0.126727
w 233 -232 -215 0.419246
w 234 233 216 0
w 234 233 -216 1
w 234 -233 216 1
w 234 -233 -216 0
w 235 217 1
w 235 -217 0
w 236 235 218 0.0221327
w 236 235 -218 0.925109
w 236 -235 218 0.392768
w 236 -235 -218 0.15097
w 237 236 219 0
w 237 236 -219 1
w 237 -236 219 0
w 237 -236 -219 0
w 238 237 220 1
w 238 237 -220 1
w 238 -237 220 0
w 238 -237 -220 1
w 239 238 221 0.552703
w 239 238 -221 0.832019
w 239 -238 221 0.806759
w 239 -238 -221 0.510151
w 240 239 222 0
w 240 239 -222 1
w 240 -239 222 1
w 240 -239 -222 0
w 241 240 223 0.499888
w 241 240 -223 0.233661
w 241 -240 223 0.547284
w 241 -240 -223 0.789461
w 242 241 224 0
w 242 241 -224 1
w 242 -241 224 1
w 242 -241 -224 1
w 243 242 225 0.407732
w 243 242 -225 0.324008
w 243 -242 225 0.664261
w 243 -242 -225 0.686225
w 244 243 226 0.130375
w 244 243 -226 0.0742599
w 244 -243 226 0.254319
w 244 -243 -226 0.471562
w 245 244 227 0
w 245 244 -227 0
w 245 -244 227 0
w 245 -244 -227 1
w 246 245 228 0.13956
w 246 245 -228 0.915814
w 246 -245 228 0.171294
w 246 -245 -228 0.828951
w 247 246 229 1
w 247 246 -229 0
w 247 -246 229 0
w 247 -246 -229 1
w 248 247 230 1
w 248 247 -230 0
w 248 -247 230 1
w 248 -247 -230 1
w 249 248 231 0.892456
w 249 248 -231 0.518256
w 249 -248 231 0.195859
w 249 -248 -231 0.556717
w 250 249 232 1
w 250 249 -232 0
w 250 -249 232 0
w 250 -249 -232 0
w 251 250 233 1
w 251 250 -233 1
w 251 -250 233 0
w 251 -250 -233 1
w 252 251 234 1
w 252 251 -234 0
w 252 -251 234 1
w 252 -251 -234 1
w 253 235 0
w 253 -235 1
w 254 253 236 0
w 254 253 -236 0
w 254 -253 236 0
w 254 -253 -236 1
w 255 254 237 0
w 255 254 -237 0
w 255 -254 237 1
w 255 -254 -237 0
w 256 255 238 1
w 256 255 -238 1
w 256 -255 238 0
w 256 -255 -238 0
w 257 256 239 0.667358
w 257 256 -239 0.253142
w 257 -256 239 0.359654
w 257 -256 -239 0.826012
w 258 257 240 0.757408
w 258 257 -240 0.00893221
w 258 -257 240 0.754828
w 258 -257 -240 0.980365
w 259 258 241 0.0799378
w 259 258 -241 0.119137
w 259 -258 241 0.6149
w 259 -258 -241 0.233999
w 260 259 242 0.638949
w 260 259 -242 0.716898
w 260 -259 242 0.901344
w 260 -259 -242 0.345698
w 261 260 243 1
w 261 260 -243 0
w 261 -260 243 1
w 261 -260 -243 0
w 262 261 244 0.272737
w 262 261 -244 0.0640689
w 262 -261 244 0.648184
w 262 -261 -244 0.253003
w 263 262 245 1
w 263 262 -245 0
w 263 -262 245 0
w 263 -262 -245 1
w 264 263 246 0.86089
w 264 263 -246 0.745589
w 264 -263 246 0.755304
w 264 -263 -246 0.615718
w 265 264 247 0.481573
w 265 264 -247 0.695656
w 265 -264 247 0.845091
w 265 -264 -247 0.0964737
w 266 265 248 0.526667
w 266 265 -248 0.735422
w 266 -265 248 0.646553
w 266 -265 -248 0.428011
w 267 266 249 0
w 267 266 -249 1
w 267 -266 249 1
w 267 -266 -249 1
w 268 267 250 0.0072929
w 268 267 -250 0.0865748
w 268 -267 250 0.828713
w 268 -267 -250 0.655477
w 269 268 251 0
w 269 268 -251 1
w 269 -268 251 1
w 269 -268 -251 0
w 270 269 252 0
w 270 269 -252 1
w 270 -269 252 1
w 270 -269 -252 0
w 271 253 0.74373
w 271 -253 0.243188
w 272 271 254 1
w 272 271 -254 1
w 272 -271 254 1
w 272 -271 -254 0
w 273 272 255 0
w 273 272 -255 1
w 273 -272 255 0
w 273 -272 -255 0
w 274 273 256 1
w 274 273 -256 0
w 274 -273 256 0
w 274 -273 -256 0
w 275 274 257 0.607352
w 275 274 -257 0.0334351
w 275 -274 257 0.111906
w 275 -274 -257 0.474535
w 276 275 258 1
w 276 275 -258 1
w 276 -275 258 1
w 276 -275 -258 0
w 277 276 259 0.607402
w 277 276 -259 0.139768
w 277 -276 259 0.28842
w 277 -276 -259 0.351132
w 278 277 260 1
w 278 277 -260 0
w 278 -277 260 1
w 278 -277 -260 1
w 279 278 261 0
w 279 278 -261 1
w 279 -278 261 1
w 279 -278 -261 0
w 280 279 262 0.612937
w 280 279 -262 0.32457
w 280 -279 262 0.345129
w 280 -279 -262 0.391576
w 281 280 263 0.117457
w 281 280 -263 0.998929
w 281 -280 263 0.735963
w 281 -280 -263 0.229363
w 282 281 264 0
w 282 281 -264 0
w 282 -281 264 0
w 282 -281 -264 1
w 283 282 265 0.759811
w 283 282 -265 0.250432
w 283 -282 265 0.119128
w 283 -282 -265 0.0482304
w 284 283 266 0.502083
w 284 283 -266 0.667709
w 284 -283 266 0.541517
w 284 -283 -266 0.2247
w 285 284 267 0.596959
w 285 284 -267 0.0224009
w 285 -284 267 0.335362
w 285 -284 -267 0.1959
w 286 285 268 0.994737
w 286 285 -268 0.808837
w 286 -285 268 0.300876
w 286 -285 -268 0.339866
w 287 286 269 1
w 287 286 -269 0
w 287 -286 269 0
w 287 -286 -269 0
w 288 287 270 0.672806
w 288 287 -270 0.79277
w 288 -287 270 0.287894
w 288 -287 -270 0.7796
w 289 271 0
w 289 -271 1
w 290 289 272 0.686231
w 290 289 -272 0.386382
w 290 -289 272 0.587642
w 290 -289 -272 0.287795
w 291 290 273 0.255351
w 291 290 -273 0.829313
w 291 -290 273 0.113166
w 291 -290 -273 0.803253
w 292 291 274 0
w 292 291 -274 1
w 292 -291 274 1
w 292 -291 -274 0
w 293 292 275 0
w 293 292 -275 0
w 293 -292 275 1
w 293 -292 -275 0
w 294 293 276 1
w 294 293 -276 0
w 294 -293 276 0
w 294 -293 -276 0
w 295 294 277 0.94829
w 295 294 -277 0.905122
w 295 -294 277 0.28317
w 295 -294 -277 0.38409
w 296 295 278 1
w 296 295 -278 1
w 296 -295 278 0
w 296 -295 -278 1
w 297 296 279 0
w 297 296 -279 1
w 297 -296 279 1
w 297 -296 -279 1
w 298 297 280 0
w 298 297 -280 1
w 298 -297 280 0
w 298 -297 -280 1
w 299 298 281 0.740795
w 299 298 -281 0.666881
w 299 -298 281 0.220577
w 299 -298 -281 0.214013
w 300 299 282 0
w 300 299 -282 0
w 300 -299 282 1
w 300 -299 -282 0
w 301 300 283 0.74054
w 301 300 -283 0.666905
w 301 -300 283 0.915807
w 301 -300 -283 0.12463
w 302 301 284 0.738388
w 302 301 -284 0.194951
w 302 -301 284 0.398039
w 302 -301 -284 0.148611
w 303 302 285 0.845262
w 303 302 -285 0.814184
w 303 -302 285 0.740498
w 303 -302 -285 0.405651
w 304 303 286 1
w 304 303 -286 0
w 304 -303 286 0
w 304 -303 -286 0
w 305 304 287 0.631249
w 305 304 -287 0.256953
w 305 -304 287 0.130012
w 305 -304 -287 0.845262
w 306 305 288 0.766742
w 306 305 -288 0.989816
w 306 -305 288 0.684323
w 306 -305 -288 0.558992
w 307 289 0.31696
w 307 -289 0.299532
w 308 307 290 0
w 308 307 -290 0
w 308 -307 290 1
w 308 -307 -290 0
w 309 308 291 0.655823
w 309 308 -291 0.119766
w 309 -308 291 0.172182
w 309 -308 -291 0.501085
w 310 309 292 0.91268
w 310 309 -292 0.906736
w 310 -309 292 0.216962
w 310 -309 -292 0.266878
w 311 310 293 0
w 311 310 -293 0
w 311 -310 293 0
w 311 -310 -293 1
w 312 311 294 0
w 312 311 -294 0
w 312 -311 294 1
w 312 -311 -294 0
w 313 312 295 0.353481
w 313 312 -295 0.373524
w 313 -312 295 0.32534
w 313 -312 -295 0.670441
w 314 313 296 0.743844
w 314 313 -296 0.903208
w 314 -313 296 0.097218
w 314 -313 -296 0.00162771
w 315 314 297 0.716332
w 315 314 -297 0.65745
w 315 -314 297 0.99413
w 315 -314 -297 0.888513
w 316 315 298 1
w 316 315 -298 0
w 316 -315 298 1
w 316 -315 -298 1
w 317 316 299 1
w 317 316 -299 0
w 317 -316 299 0
w 317 -316 -299 0
w 318 317 300 0.0389227
w 318 317 -300 0.0391828
w 318 -317 300 0.575048
w 318 -317 -300 0.708081
w 319 318 301 0.14879
w 319 318 -301 0.0615617
w 319 -318 301 0.227239
w 319 -318 -301 0.47413
w 320 319 302 0.900295
w 320 319 -302 0.217974
w 320 -319 302 0.635211
w 320 -319 -302 0.997513
w 321 320 303 1
w 321 320 -303 0
w 321 -320 303 0
w 321 -320 -303 1
w 322 321 304 0.0355878
w 322 321 -304 0.431785
w 322 -321 304 0.40355
w 322 -321 -304 0.100859
w 323 322 305 0.471622
w 323 322 -305 0.174474
w 323 -322 305 0.829284
w 323 -322 -305 0.396642
w 324 323 306 1
w 324 323 -306 1
w 324 -323 306 0
w 324 -323 -306 1